20	5
0	2	2	1
1	1	11
2	2	20	16
3	1	12
4	1	8
5	1	13
6	1	4
7	0
8	1	7
9	1	5
10	1	9
11	1	10
12	1	6
13	1	19
14	2	18	15
15	1	21
16	1	21
17	1	21
18	1	21
19	1	21
20	1	21
21	0
0	0	0	0	0	0	0
1	10	4	0	5	0	0
2	3	4	2	5	0	3
3	9	0	0	4	0	0
4	1	0	0	0	0	4
5	9	0	0	3	2	4
6	6	4	5	4	1	4
7	3	3	0	0	3	0
8	8	0	0	2	2	0
9	6	0	0	0	0	1
10	10	5	0	0	0	0
11	7	1	0	0	4	0
12	1	5	1	2	1	1
13	7	0	0	2	1	2
14	6	0	0	0	4	5
15	2	2	3	0	0	3
16	7	0	0	2	0	0
17	1	0	1	2	0	5
18	9	4	0	3	0	4
19	5	5	3	1	1	5
20	10	0	0	0	0	1
21	0	0	0	0	0	0
8	5	8	4	8
